pRobustCbss/GLKH-1.1/TMP/mtspf.pid6765.atsp
NAME : mtspf.pid6765.gtsp
TYPE : ATSP
DIMENSION : 45
EDGE_WEIGHT_TYPE : EXPLICIT
EDGE_WEIGHT_FORMAT : FULL_MATRIX
EDGE_WEIGHT_SECTION
999999 5368709 5368709 5368709 5368709 5368709 5368709 5368709 5368709 5368709 5368709 5368709 5368709 5368709 5368709 5368709 5368709 5368709 5368709 5368709 5368709 5368709 5368709 5368709 5368709 5368709 5368709 5368709 5368709 5368709 5368709 5368709 5368709 5368709 5368709 5368709 5368709 5368709 5368709 5368709 5368709 5368709 5368709 5368709 5368709 
5368709 999999 5368709 5368709 5368709 5368781 5368782 5368781 5368780 5368971 5368970 5368969 5368970 5368709 5368709 5368709 5368709 5368709 5368709 5368709 5368709 5368996 5368995 5368994 5368995 5368959 5368960 5368959 5368958 5369036 5369035 5369034 5369035 5368709 5368709 5368709 5368709 5368709 5368709 5368709 5368709 5368814 5368815 5368816 5368815 
5368709 5368709 999999 5368709 5368709 5368915 5368916 5368917 5368916 5368877 5368876 5368875 5368876 5368709 5368709 5368709 5368709 5368709 5368709 5368709 5368709 5368798 5368797 5368796 5368797 5368795 5368796 5368797 5368796 5368840 5368839 5368838 5368839 5368709 5368709 5368709 5368709 5368709 5368709 5368709 5368709 5369020 5369021 5369022 5369021 
5368709 5368709 5368709 999999 5368709 5368830 5368829 5368828 5368829 5369018 5369017 5369016 5369017 5368709 5368709 5368709 5368709 5368709 5368709 5368709 5368709 5369043 5369042 5369041 5369042 5369006 5369007 5369006 5369005 5369085 5369084 5369083 5369084 5368709 5368709 5368709 5368709 5368709 5368709 5368709 5368709 5368767 5368768 5368769 5368768 
5368709 5368709 5368709 5368709 999999 5368870 5368869 5368868 5368869 5369020 5369019 5369018 5369019 5368709 5368709 5368709 5368709 5368709 5368709 5368709 5368709 5369033 5369032 5369031 5369032 5368984 5368983 5368982 5368983 5369075 5369074 5369073 5369074 5368709 5368709 5368709 5368709 5368709 5368709 5368709 5368709 5368779 5368780 5368781 5368780 
5368709 5368709 5368709 5368709 5368709 999999 0 10737418 10737418 5368902 5368901 5368900 5368901 5368709 5368709 5368709 5368709 5368709 5368709 5368709 5368709 5368937 5368936 5368935 5368936 5368982 5368983 5368982 5368981 5368967 5368966 5368965 5368966 5368709 5368709 5368709 5368709 5368709 5368709 5368709 5368709 5368885 5368884 5368885 5368886 
5368709 5368709 5368709 5368709 5368709 10737418 999999 0 10737418 5368901 5368900 5368899 5368900 5368709 5368709 5368709 5368709 5368709 5368709 5368709 5368709 5368936 5368935 5368934 5368935 5368983 5368984 5368983 5368982 5368966 5368965 5368964 5368965 5368709 5368709 5368709 5368709 5368709 5368709 5368709 5368709 5368886 5368885 5368886 5368887 
5368709 5368709 5368709 5368709 5368709 10737418 10737418 999999 0 5368900 5368899 5368898 5368899 5368709 5368709 5368709 5368709 5368709 5368709 5368709 5368709 5368937 5368936 5368935 5368936 5368982 5368983 5368982 5368981 5368967 5368966 5368965 5368966 5368709 5368709 5368709 5368709 5368709 5368709 5368709 5368709 5368885 5368886 5368887 5368886 
5368709 5368709 5368709 5368709 5368709 0 10737418 10737418 999999 5368901 5368900 5368899 5368900 5368709 5368709 5368709 5368709 5368709 5368709 5368709 5368709 5368938 5368937 5368936 5368937 5368981 5368982 5368981 5368980 5368968 5368967 5368966 5368967 5368709 5368709 5368709 5368709 5368709 5368709 5368709 5368709 5368884 5368885 5368886 5368885 
5368709 5368709 5368709 5368709 5368709 5368900 5368899 5368900 5368901 999999 0 10737418 10737418 5368709 5368709 5368709 5368709 5368709 5368709 5368709 5368709 5368885 5368886 5368887 5368886 5368958 5368959 5368960 5368959 5368857 5368858 5368857 5368858 5368709 5368709 5368709 5368709 5368709 5368709 5368709 5368709 5369073 5369074 5369075 5369074 
5368709 5368709 5368709 5368709 5368709 5368901 5368900 5368901 5368902 10737418 999999 0 10737418 5368709 5368709 5368709 5368709 5368709 5368709 5368709 5368709 5368886 5368887 5368888 5368887 5368959 5368960 5368961 5368960 5368858 5368859 5368858 5368859 5368709 5368709 5368709 5368709 5368709 5368709 5368709 5368709 5369074 5369075 5369076 5369075 
5368709 5368709 5368709 5368709 5368709 5368900 5368899 5368900 5368901 10737418 10737418 999999 0 5368709 5368709 5368709 5368709 5368709 5368709 5368709 5368709 5368885 5368886 5368887 5368886 5368958 5368959 5368960 5368959 5368857 5368858 5368857 5368858 5368709 5368709 5368709 5368709 5368709 5368709 5368709 5368709 5369073 5369074 5369075 5369074 
5368709 5368709 5368709 5368709 5368709 5368899 5368898 5368899 5368900 0 10737418 10737418 999999 5368709 5368709 5368709 5368709 5368709 5368709 5368709 5368709 5368884 5368885 5368886 5368885 5368957 5368958 5368959 5368958 5368856 5368857 5368856 5368857 5368709 5368709 5368709 5368709 5368709 5368709 5368709 5368709 5369072 5369073 5369074 5369073 
5368709 5368709 5368709 5368709 5368709 5368709 5368709 5368709 5368709 5368709 5368709 5368709 5368709 999999 0 10737418 10737418 5368709 5368709 5368709 5368709 5368709 5368709 5368709 5368709 5368709 5368709 5368709 5368709 5368709 5368709 5368709 5368709 5368709 5368709 5368709 5368709 5368709 5368709 5368709 5368709 5368709 5368709 5368709 5368709 
5368709 5368709 5368709 5368709 5368709 5368709 5368709 5368709 5368709 5368709 5368709 5368709 5368709 10737418 999999 0 10737418 5368709 5368709 5368709 5368709 5368709 5368709 5368709 5368709 5368709 5368709 5368709 5368709 5368709 5368709 5368709 5368709 5368709 5368709 5368709 5368709 5368709 5368709 5368709 5368709 5368709 5368709 5368709 5368709 
5368709 5368709 5368709 5368709 5368709 5368709 5368709 5368709 5368709 5368709 5368709 5368709 5368709 10737418 10737418 999999 0 5368709 5368709 5368709 5368709 5368709 5368709 5368709 5368709 5368709 5368709 5368709 5368709 5368709 5368709 5368709 5368709 5368709 5368709 5368709 5368709 5368709 5368709 5368709 5368709 5368709 5368709 5368709 5368709 
5368709 5368709 5368709 5368709 5368709 5368709 5368709 5368709 5368709 5368709 5368709 5368709 5368709 0 10737418 10737418 999999 5368709 5368709 5368709 5368709 5368709 5368709 5368709 5368709 5368709 5368709 5368709 5368709 5368709 5368709 5368709 5368709 5368709 5368709 5368709 5368709 5368709 5368709 5368709 5368709 5368709 5368709 5368709 5368709 
5368709 5368709 5368709 5368709 5368709 5368709 5368709 5368709 5368709 5368709 5368709 5368709 5368709 5368709 5368709 5368709 5368709 999999 0 10737418 10737418 5368709 5368709 5368709 5368709 5368709 5368709 5368709 5368709 5368709 5368709 5368709 5368709 5368709 5368709 5368709 5368709 5368709 5368709 5368709 5368709 5368709 5368709 5368709 5368709 
5368709 5368709 5368709 5368709 5368709 5368709 5368709 5368709 5368709 5368709 5368709 5368709 5368709 5368709 5368709 5368709 5368709 10737418 999999 0 10737418 5368709 5368709 5368709 5368709 5368709 5368709 5368709 5368709 5368709 5368709 5368709 5368709 5368709 5368709 5368709 5368709 5368709 5368709 5368709 5368709 5368709 5368709 5368709 5368709 
5368709 5368709 5368709 5368709 5368709 5368709 5368709 5368709 5368709 5368709 5368709 5368709 5368709 5368709 5368709 5368709 5368709 10737418 10737418 999999 0 5368709 5368709 5368709 5368709 5368709 5368709 5368709 5368709 5368709 5368709 5368709 5368709 5368709 5368709 5368709 5368709 5368709 5368709 5368709 5368709 5368709 5368709 5368709 5368709 
5368709 5368709 5368709 5368709 5368709 5368709 5368709 5368709 5368709 5368709 5368709 5368709 5368709 5368709 5368709 5368709 5368709 0 10737418 10737418 999999 5368709 5368709 5368709 5368709 5368709 5368709 5368709 5368709 5368709 5368709 5368709 5368709 5368709 5368709 5368709 5368709 5368709 5368709 5368709 5368709 5368709 5368709 5368709 5368709 
5368709 5368709 5368709 5368709 5368709 5368935 5368936 5368937 5368936 5368887 5368886 5368885 5368886 5368709 5368709 5368709 5368709 5368709 5368709 5368709 5368709 999999 0 10737418 10737418 5368879 5368880 5368881 5368880 5368754 5368755 5368754 5368753 5368709 5368709 5368709 5368709 5368709 5368709 5368709 5368709 5369098 5369099 5369100 5369099 
5368709 5368709 5368709 5368709 5368709 5368936 5368937 5368938 5368937 5368886 5368885 5368884 5368885 5368709 5368709 5368709 5368709 5368709 5368709 5368709 5368709 10737418 999999 0 10737418 5368880 5368881 5368882 5368881 5368753 5368754 5368753 5368752 5368709 5368709 5368709 5368709 5368709 5368709 5368709 5368709 5369099 5369100 5369101 5369100 
5368709 5368709 5368709 5368709 5368709 5368935 5368936 5368937 5368936 5368887 5368886 5368885 5368886 5368709 5368709 5368709 5368709 5368709 5368709 5368709 5368709 10737418 10737418 999999 0 5368879 5368880 5368881 5368880 5368754 5368753 5368752 5368753 5368709 5368709 5368709 5368709 5368709 5368709 5368709 5368709 5369098 5369099 5369100 5369099 
5368709 5368709 5368709 5368709 5368709 5368934 5368935 5368936 5368935 5368888 5368887 5368886 5368887 5368709 5368709 5368709 5368709 5368709 5368709 5368709 5368709 0 10737418 10737418 999999 5368878 5368879 5368880 5368879 5368755 5368754 5368753 5368754 5368709 5368709 5368709 5368709 5368709 5368709 5368709 5368709 5369097 5369098 5369099 5369098 
5368709 5368709 5368709 5368709 5368709 5368982 5368981 5368980 5368981 5368960 5368959 5368958 5368959 5368709 5368709 5368709 5368709 5368709 5368709 5368709 5368709 5368881 5368880 5368879 5368880 999999 0 10737418 10737418 5368923 5368922 5368921 5368922 5368709 5368709 5368709 5368709 5368709 5368709 5368709 5368709 5369051 5369050 5369051 5369052 
5368709 5368709 5368709 5368709 5368709 5368983 5368982 5368981 5368982 5368959 5368958 5368957 5368958 5368709 5368709 5368709 5368709 5368709 5368709 5368709 5368709 5368880 5368879 5368878 5368879 10737418 999999 0 10737418 5368922 5368921 5368920 5368921 5368709 5368709 5368709 5368709 5368709 5368709 5368709 5368709 5369052 5369051 5369052 5369053 
5368709 5368709 5368709 5368709 5368709 5368984 5368983 5368982 5368983 5368960 5368959 5368958 5368959 5368709 5368709 5368709 5368709 5368709 5368709 5368709 5368709 5368881 5368880 5368879 5368880 10737418 10737418 999999 0 5368923 5368922 5368921 5368922 5368709 5368709 5368709 5368709 5368709 5368709 5368709 5368709 5369051 5369050 5369051 5369052 
5368709 5368709 5368709 5368709 5368709 5368983 5368982 5368981 5368982 5368961 5368960 5368959 5368960 5368709 5368709 5368709 5368709 5368709 5368709 5368709 5368709 5368882 5368881 5368880 5368881 0 10737418 10737418 999999 5368924 5368923 5368922 5368923 5368709 5368709 5368709 5368709 5368709 5368709 5368709 5368709 5369050 5369049 5369050 5369051 
5368709 5368709 5368709 5368709 5368709 5368965 5368966 5368967 5368966 5368859 5368858 5368857 5368858 5368709 5368709 5368709 5368709 5368709 5368709 5368709 5368709 5368752 5368753 5368754 5368753 5368921 5368922 5368923 5368922 999999 0 10737418 10737418 5368709 5368709 5368709 5368709 5368709 5368709 5368709 5368709 5369140 5369139 5369140 5369141 
5368709 5368709 5368709 5368709 5368709 5368966 5368967 5368968 5368967 5368858 5368857 5368856 5368857 5368709 5368709 5368709 5368709 5368709 5368709 5368709 5368709 5368753 5368754 5368755 5368754 5368922 5368923 5368924 5368923 10737418 999999 0 10737418 5368709 5368709 5368709 5368709 5368709 5368709 5368709 5368709 5369141 5369140 5369141 5369142 
5368709 5368709 5368709 5368709 5368709 5368965 5368966 5368967 5368966 5368859 5368858 5368857 5368858 5368709 5368709 5368709 5368709 5368709 5368709 5368709 5368709 5368754 5368753 5368754 5368755 5368921 5368922 5368923 5368922 10737418 10737418 999999 0 5368709 5368709 5368709 5368709 5368709 5368709 5368709 5368709 5369140 5369139 5369140 5369141 
5368709 5368709 5368709 5368709 5368709 5368964 5368965 5368966 5368965 5368858 5368857 5368856 5368857 5368709 5368709 5368709 5368709 5368709 5368709 5368709 5368709 5368753 5368752 5368753 5368754 5368920 5368921 5368922 5368921 0 10737418 10737418 999999 5368709 5368709 5368709 5368709 5368709 5368709 5368709 5368709 5369139 5369138 5369139 5369140 
5368709 5368709 5368709 5368709 5368709 5368709 5368709 5368709 5368709 5368709 5368709 5368709 5368709 5368709 5368709 5368709 5368709 5368709 5368709 5368709 5368709 5368709 5368709 5368709 5368709 5368709 5368709 5368709 5368709 5368709 5368709 5368709 5368709 999999 0 10737418 10737418 5368709 5368709 5368709 5368709 5368709 5368709 5368709 5368709 
5368709 5368709 5368709 5368709 5368709 5368709 5368709 5368709 5368709 5368709 5368709 5368709 5368709 5368709 5368709 5368709 5368709 5368709 5368709 5368709 5368709 5368709 5368709 5368709 5368709 5368709 5368709 5368709 5368709 5368709 5368709 5368709 5368709 10737418 999999 0 10737418 5368709 5368709 5368709 5368709 5368709 5368709 5368709 5368709 
5368709 5368709 5368709 5368709 5368709 5368709 5368709 5368709 5368709 5368709 5368709 5368709 5368709 5368709 5368709 5368709 5368709 5368709 5368709 5368709 5368709 5368709 5368709 5368709 5368709 5368709 5368709 5368709 5368709 5368709 5368709 5368709 5368709 10737418 10737418 999999 0 5368709 5368709 5368709 5368709 5368709 5368709 5368709 5368709 
5368709 5368709 5368709 5368709 5368709 5368709 5368709 5368709 5368709 5368709 5368709 5368709 5368709 5368709 5368709 5368709 5368709 5368709 5368709 5368709 5368709 5368709 5368709 5368709 5368709 5368709 5368709 5368709 5368709 5368709 5368709 5368709 5368709 0 10737418 10737418 999999 5368709 5368709 5368709 5368709 5368709 5368709 5368709 5368709 
5368709 5368709 5368709 5368709 5368709 5368709 5368709 5368709 5368709 5368709 5368709 5368709 5368709 5368709 5368709 5368709 5368709 5368709 5368709 5368709 5368709 5368709 5368709 5368709 5368709 5368709 5368709 5368709 5368709 5368709 5368709 5368709 5368709 5368709 5368709 5368709 5368709 999999 0 10737418 10737418 5368709 5368709 5368709 5368709 
5368709 5368709 5368709 5368709 5368709 5368709 5368709 5368709 5368709 5368709 5368709 5368709 5368709 5368709 5368709 5368709 5368709 5368709 5368709 5368709 5368709 5368709 5368709 5368709 5368709 5368709 5368709 5368709 5368709 5368709 5368709 5368709 5368709 5368709 5368709 5368709 5368709 10737418 999999 0 10737418 5368709 5368709 5368709 5368709 
5368709 5368709 5368709 5368709 5368709 5368709 5368709 5368709 5368709 5368709 5368709 5368709 5368709 5368709 5368709 5368709 5368709 5368709 5368709 5368709 5368709 5368709 5368709 5368709 5368709 5368709 5368709 5368709 5368709 5368709 5368709 5368709 5368709 5368709 5368709 5368709 5368709 10737418 10737418 999999 0 5368709 5368709 5368709 5368709 
5368709 5368709 5368709 5368709 5368709 5368709 5368709 5368709 5368709 5368709 5368709 5368709 5368709 5368709 5368709 5368709 5368709 5368709 5368709 5368709 5368709 5368709 5368709 5368709 5368709 5368709 5368709 5368709 5368709 5368709 5368709 5368709 5368709 5368709 5368709 5368709 5368709 0 10737418 10737418 999999 5368709 5368709 5368709 5368709 
5368709 5368709 5368709 5368709 5368709 5368887 5368886 5368885 5368886 5369075 5369074 5369073 5369074 5368709 5368709 5368709 5368709 5368709 5368709 5368709 5368709 5369100 5369099 5369098 5369099 5369053 5369052 5369051 5369052 5369142 5369141 5369140 5369141 5368709 5368709 5368709 5368709 5368709 5368709 5368709 5368709 999999 0 10737418 10737418 
5368709 5368709 5368709 5368709 5368709 5368886 5368885 5368884 5368885 5369074 5369073 5369072 5369073 5368709 5368709 5368709 5368709 5368709 5368709 5368709 5368709 5369099 5369098 5369097 5369098 5369052 5369051 5369050 5369051 5369141 5369140 5369139 5369140 5368709 5368709 5368709 5368709 5368709 5368709 5368709 5368709 10737418 999999 0 10737418 
5368709 5368709 5368709 5368709 5368709 5368885 5368886 5368885 5368884 5369075 5369074 5369073 5369074 5368709 5368709 5368709 5368709 5368709 5368709 5368709 5368709 5369100 5369099 5369098 5369099 5369051 5369050 5369049 5369050 5369140 5369139 5369138 5369139 5368709 5368709 5368709 5368709 5368709 5368709 5368709 5368709 10737418 10737418 999999 0 
5368709 5368709 5368709 5368709 5368709 5368886 5368887 5368886 5368885 5369076 5369075 5369074 5369075 5368709 5368709 5368709 5368709 5368709 5368709 5368709 5368709 5369101 5369100 5369099 5369100 5369052 5369051 5369050 5369051 5369141 5369140 5369139 5369140 5368709 5368709 5368709 5368709 5368709 5368709 5368709 5368709 0 10737418 10737418 999999 
EOF
