pRobustCbss/GLKH-1.1/TMP/mtspf.pid6765.tour
NAME : mtspf.pid6765.gtsp.80530678.tour
COMMENT : Length = 80530678
COMMENT : Found by LKH [Keld Helsgaun] Fri Feb 21 07:23:25 2025
TYPE : TOUR
DIMENSION : 45
TOUR_SECTION
1
42
43
44
45
4
3
35
36
37
34
10
11
12
13
40
41
38
39
28
29
26
27
14
15
16
17
25
22
23
24
32
33
30
31
20
21
18
19
7
8
9
6
5
2
-1
EOF
